10124
5583
3695
861
6620
8556
7609
4891
4610
2471
2072
4488
2890
3450
9871
1506
6590
7902
7998
10041
2912
7565
8575
9283
9159
9753
567
9267
4946
3162
9624
7460
2568
8511
7253
8593
1670
4071
7703
9755
6167
1266
10027
5053
9916
1718
2870
7848
5445
3745
643
